p cnf 13 32
-2 -8 -3 0
-2 8 3 0
2 8 -3 0
2 -8 3 0
3 9 -10 0
3 -9 10 0
-3 -9 -10 0
-3 9 10 0
4 -5 6 0
4 5 -6 0
-4 5 6 0
-4 -5 -6 0
5 11 -12 0
5 -11 12 0
-5 -11 -12 0
-5 11 12 0
-6 8 10 0
-6 9 10 0
-6 8 9 0
6 -8 -9 0
6 -9 -10 0
6 -8 -10 0
-7 12 6 0
-7 11 12 0
-7 11 6 0
7 -11 -12 0
7 -12 -6 0
7 -11 -6 0
-13 0
2 0
4 0
7 0

